
Gurobi 10.0.1 (win64) logging started Sat Sep  9 01:38:40 2023

Set parameter LogFile to value "results-heuristic-start//log/BA_10_makespan.log"
Gurobi Optimizer version 10.0.1 build v10.0.1rc0 (win64)

CPU model: AMD Ryzen 7 3700X 8-Core Processor, instruction set [SSE2|AVX|AVX2]
Thread count: 8 physical cores, 16 logical processors, using up to 16 threads

Optimize a model with 207 rows, 193 columns and 773 nonzeros
Model fingerprint: 0xb3749e68
Variable types: 24 continuous, 169 integer (168 binary)
Coefficient statistics:
  Matrix range     [1e+00, 1e+06]
  Objective range  [1e+00, 1e+00]
  Bounds range     [1e+00, 1e+00]
  RHS range        [1e+00, 3e+06]

Warning: Completing partial solution with 157 unfixed non-continuous variables out of 169
User MIP start produced solution with objective 837 (0.00s)
Loaded user MIP start with objective 837

Presolve removed 42 rows and 113 columns
Presolve time: 0.00s
Presolved: 165 rows, 80 columns, 704 nonzeros
Variable types: 24 continuous, 56 integer (55 binary)
Found heuristic solution: objective 836.0000000

Root relaxation: objective 3.100000e+01, 29 iterations, 0.00 seconds (0.00 work units)

    Nodes    |    Current Node    |     Objective Bounds      |     Work
 Expl Unexpl |  Obj  Depth IntInf | Incumbent    BestBd   Gap | It/Node Time

     0     0   31.00000    0    7  836.00000   31.00000  96.3%     -    0s
H    0     0                     104.0000000   31.00000  70.2%     -    0s
H    0     0                      91.0000000   31.00000  65.9%     -    0s
H    0     0                      86.0000000   31.00000  64.0%     -    0s
     0     0   31.00000    0    9   86.00000   31.00000  64.0%     -    0s
H    0     0                      84.0000000   31.00000  63.1%     -    0s
H    0     0                      83.0000000   31.00000  62.7%     -    0s
H    0     0                      74.0000000   31.26128  57.8%     -    0s
     0     0   32.00000    0   10   74.00000   32.00000  56.8%     -    0s
     0     0   33.38889    0    9   74.00000   33.38889  54.9%     -    0s
H    0     0                      73.0000000   33.38889  54.3%     -    0s
     0     0   33.56543    0   11   73.00000   33.56543  54.0%     -    0s
     0     0   33.56543    0   14   73.00000   33.56543  54.0%     -    0s
     0     0   33.56543    0   16   73.00000   33.56543  54.0%     -    0s
     0     0   33.56543    0   18   73.00000   33.56543  54.0%     -    0s
     0     0   33.78869    0   18   73.00000   33.78869  53.7%     -    0s
H    0     0                      71.0000000   33.78869  52.4%     -    0s
     0     0   34.00000    0   16   71.00000   34.00000  52.1%     -    0s
     0     0   34.00000    0   15   71.00000   34.00000  52.1%     -    0s
     0     0   34.00000    0   19   71.00000   34.00000  52.1%     -    0s
     0     0   34.00000    0   16   71.00000   34.00000  52.1%     -    0s
H    0     0                      70.0000000   34.00000  51.4%     -    0s
     0     0   34.00000    0   16   70.00000   34.00000  51.4%     -    0s
     0     0   34.00000    0    9   70.00000   34.00000  51.4%     -    0s
H    0     0                      69.0000000   34.00000  50.7%     -    0s
     0     0   34.12204    0   15   69.00000   34.12204  50.5%     -    0s
     0     0   34.12204    0   15   69.00000   34.12204  50.5%     -    0s
     0     0   34.31250    0   15   69.00000   34.31250  50.3%     -    0s
     0     0   35.00000    0    7   69.00000   35.00000  49.3%     -    0s
H    0     0                      65.0000000   35.00000  46.2%     -    0s
     0     0   35.00000    0    9   65.00000   35.00000  46.2%     -    0s
     0     0   36.00000    0    9   65.00000   36.00000  44.6%     -    0s
     0     0   36.00000    0   14   65.00000   36.00000  44.6%     -    0s
     0     0   36.00000    0    8   65.00000   36.00000  44.6%     -    0s
     0     0   36.81818    0    9   65.00000   36.81818  43.4%     -    0s
     0     0   37.00000    0    8   65.00000   37.00000  43.1%     -    0s
     0     0   37.00000    0    8   65.00000   37.00000  43.1%     -    0s
     0     2   37.00000    0    8   65.00000   37.00000  43.1%     -    0s

Cutting planes:
  Learned: 86
  Gomory: 5
  Cover: 8
  Implied bound: 12
  MIR: 49
  Flow cover: 61
  Inf proof: 36

Explored 12640 nodes (35195 simplex iterations) in 0.34 seconds (0.24 work units)
Thread count was 16 (of 16 available processors)

Solution count 10: 65 69 70 ... 91

Optimal solution found (tolerance 1.00e-04)
Best objective 6.500000000000e+01, best bound 6.500000000000e+01, gap 0.0000%
Warning: constraint name "precedence between 0,2 to 0,0 if x_[j,l,h,z,i]=1" has a space
Warning: constraint name "precedence between 0,2 to 0,0 if x_[j,l,h,z,i]=1" has a space
Warning: default constraint names used to write mps file
